[ma. 03. april 14:21:20 +0200 2023]  ./input/alternate_g_np/50-3-3.gcc
Set parameter Username
Academic license - for non-commercial use only - expires 2024-03-28
Set parameter TimeLimit to value 1800
Set parameter PreCrush to value 1
Set parameter LazyConstraints to value 1
Gurobi Optimizer version 10.0.1 build v10.0.1rc0 (linux64)

CPU model: AMD Ryzen 9 5950X 16-Core Processor, instruction set [SSE2|AVX|AVX2]
Thread count: 16 physical cores, 32 logical processors, using up to 32 threads

Optimize a model with 59 rows, 500 columns and 1400 nonzeros
Model fingerprint: 0x0a9cb79e
Variable types: 0 continuous, 500 integer (500 binary)
Coefficient statistics:
  Matrix range     [1e+00, 1e+00]
  Objective range  [2e+00, 1e+02]
  Bounds range     [1e+00, 1e+00]
  RHS range        [1e+00, 1e+00]
Presolve time: 0.00s
Presolved: 59 rows, 500 columns, 1400 nonzeros
Variable types: 0 continuous, 500 integer (500 binary)

Root relaxation: objective 2.391000e+03, 9 iterations, 0.00 seconds (0.00 work units)

    Nodes    |    Current Node    |     Objective Bounds      |     Work
 Expl Unexpl |  Obj  Depth IntInf | Incumbent    BestBd   Gap | It/Node Time

     0     0 2391.00000    0    9          - 2391.00000      -     -    0s
     0     0 2391.00000    0    4          - 2391.00000      -     -    0s
     0     0 2363.00000    0    -          - 2363.00000      -     -    0s
     0     0 2363.00000    0   18          - 2363.00000      -     -    0s
     0     0 2331.48148    0   27          - 2331.48148      -     -    0s
     0     0 2316.00000    0   45          - 2316.00000      -     -    0s
     0     0 2309.51984    0   59          - 2309.51984      -     -    0s
     0     0 2299.93827    0   51          - 2299.93827      -     -    0s
     0     0 2296.58431    0   72          - 2296.58431      -     -    0s
     0     0 2282.37017    0   92          - 2282.37017      -     -    0s
     0     0 2274.72589    0   95          - 2274.72589      -     -    0s
     0     0 2270.77912    0  102          - 2270.77912      -     -    0s
     0     0 2262.64100    0  120          - 2262.64100      -     -    0s
     0     0 2255.62892    0  133          - 2255.62892      -     -    0s
     0     0 2248.67837    0  154          - 2248.67837      -     -    0s
     0     0 2241.99504    0  160          - 2241.99504      -     -    0s
     0     0 2232.63860    0  160          - 2232.63860      -     -    0s
     0     0 2220.61883    0  166          - 2220.61883      -     -    0s
     0     0 2209.17173    0  172          - 2209.17173      -     -    0s
     0     0 2199.66716    0  181          - 2199.66716      -     -    0s
     0     0 2188.29395    0  183          - 2188.29395      -     -    0s
     0     0 2176.60264    0  188          - 2176.60264      -     -    0s
     0     0 2167.51020    0  195          - 2167.51020      -     -    0s
     0     0 2159.57447    0  198          - 2159.57447      -     -    0s
     0     0 2152.09309    0  193          - 2152.09309      -     -    0s
     0     0 2145.59650    0  202          - 2145.59650      -     -    0s
     0     0 2139.28200    0  208          - 2139.28200      -     -    0s
     0     0 2134.44663    0  212          - 2134.44663      -     -    0s
     0     0 2130.06192    0  222          - 2130.06192      -     -    0s
     0     0 2125.51155    0  228          - 2125.51155      -     -    0s
     0     0 2121.86093    0  232          - 2121.86093      -     -    0s
     0     0 2118.31982    0  234          - 2118.31982      -     -    0s
     0     0 2115.42173    0  239          - 2115.42173      -     -    0s
     0     0 2113.04912    0  244          - 2113.04912      -     -    0s
     0     0 2111.15980    0  242          - 2111.15980      -     -    0s
     0     0 2109.69487    0  250          - 2109.69487      -     -    0s
     0     0 2107.97378    0  256          - 2107.97378      -     -    0s
     0     0 2107.11624    0  266          - 2107.11624      -     -    0s
     0     0 2106.56632    0  268          - 2106.56632      -     -    0s
     0     0 2106.18959    0  261          - 2106.18959      -     -    0s
     0     0 2106.00000    0  164          - 2106.00000      -     -    0s
     0     0 2106.00000    0  110          - 2106.00000      -     -    0s
     0     2 2106.00000    0   61          - 2106.00000      -     -    0s
H  177   207                    1255.0000000 2106.00000  67.8%   146    0s
H  206   229                    1342.0000000 2106.00000  56.9%   147    0s
H  215   229                    1359.0000000 2106.00000  55.0%   146    0s
H  857   790                    1614.0000000 2106.00000  30.5%   102    1s
H  912   851                    1621.0000000 2106.00000  29.9%   103    2s
H 1023   897                    1655.0000000 2106.00000  27.3%   104    2s
H 2098  1607                    1664.0000000 2106.00000  26.6%  83.3    3s
  2115  1627 2106.00000   12  164 1664.00000 2106.00000  26.6%  86.5    5s
H 2203  1627                    1685.0000000 2106.00000  25.0%   103    6s
H 2209  1548                    1725.0000000 2106.00000  22.1%   104    6s
H 2459  1611                    1800.0000000 2106.00000  17.0%   113    7s
H 2470  1539                    1833.0000000 2106.00000  14.9%   113    7s
  5197  2459 1963.52197   31  159 1833.00000 2106.00000  14.9%   109   10s
 14119  6816 1929.17648   30  145 1833.00000 1999.72685  9.10%   101   15s
H16235  3275                    1904.0000000 1993.28886  4.69%   100   16s
*24883    15              25    1906.0000000 1926.60785  1.08%  98.7   19s
*25360    15              22    1913.0000000 1925.80450  0.67%  97.4   19s

Cutting planes:
  User: 619
  Gomory: 27
  MIR: 2
  Flow cover: 7
  Lazy constraints: 222

Explored 25725 nodes (2489707 simplex iterations) in 19.99 seconds (31.25 work units)
Thread count was 32 (of 32 available processors)

Solution count 10: 1913 1906 1904 ... 1621

Optimal solution found (tolerance 1.00e-04)
Best objective 1.913000000000e+03, best bound 1.913000000000e+03, gap 0.0000%

User-callback calls 55461, time in user-callback 3.58 sec
Minimal separator inequalities added: 78254
Indegree inequalities added: 132919
Passed solution check
[ma. 03. april 14:21:40 +0200 2023]  done

